set ING := zz z int cap tumm oliva bari tesc;
set FAR := zz z int cap tumm;
set OLI := oliva bari tesc;
set NUT := prot fibre sat mono;

param costo :=
zz		0.5
z		0.6
int		0.65
cap		1
tumm	1.3
oliva	2
bari	6
tesc	7;

param: nut_min nut_max :=
prot	2		infinty
fibre	2		infinty
sat		0		infinty
mono	3		infinty;

param prot	fibre	sat		mono :=
zz		1	1		0		0
z		4	2		0		0
int		5	7		0.01	0.05
cap		7	7		0.1		0.1
tumm	12	10		0		0.2
oliva	0	0		30		10
bari	0	0		20		50
tesc 	0	0		18		45;